c description: Random 3-CNF over 17 variables and 72 clauses
c generator: CNFgen (0.9.2)
c copyright: (C) 2012-2022 Massimo Lauria <massimo.lauria@uniroma1.it>
c url: https://massimolauria.net/cnfgen
c command line: cnfgen --output CNF_4.28/17_bit_72_646.cnf randkcnf 3 17 72
c
p cnf 17 72
-8 -13 -14 0
-5 11 -14 0
4 -6 11 0
-6 -14 15 0
5 12 -14 0
-1 -8 -17 0
2 -3 -11 0
-9 13 -14 0
-2 -6 11 0
-3 -9 -12 0
-8 -11 17 0
5 -16 17 0
-3 12 14 0
-10 -11 14 0
-3 -5 -9 0
2 13 14 0
6 7 11 0
1 -7 10 0
7 -10 16 0
2 6 -7 0
10 -15 17 0
6 -7 -11 0
-3 4 -11 0
2 -10 -15 0
-5 -7 -15 0
8 -12 -17 0
9 11 -12 0
3 -12 15 0
9 12 -17 0
-3 -9 -16 0
1 3 -14 0
-3 15 -16 0
-1 7 -15 0
-1 2 -7 0
-4 13 17 0
2 -4 16 0
9 -10 13 0
8 13 -14 0
-1 4 -9 0
12 14 -17 0
-5 -11 13 0
3 -11 -12 0
-12 13 -17 0
-5 7 -9 0
-1 6 -7 0
-4 5 -7 0
-1 -3 -9 0
-2 -14 -16 0
1 -4 16 0
-2 -4 -13 0
6 -12 -17 0
7 13 14 0
-3 10 11 0
-2 -5 -9 0
-3 6 15 0
-11 12 13 0
-2 4 8 0
1 -4 9 0
-1 -10 -17 0
-4 11 16 0
-4 11 15 0
5 8 -13 0
-3 4 7 0
7 -13 14 0
4 8 -14 0
-9 12 15 0
-2 3 -13 0
4 6 -11 0
-7 -10 -13 0
7 11 -16 0
-3 4 -7 0
4 6 11 0
